
Welcome to IBM(R) ILOG(R) CPLEX(R) Interactive Optimizer 22.1.1.0
  with Simplex, Mixed Integer & Barrier Optimizers
5725-A06 5725-A29 5724-Y48 5724-Y49 5724-Y54 5724-Y55 5655-Y21
Copyright IBM Corp. 1988, 2022.  All Rights Reserved.

Type 'help' for a list of available commands.
Type 'help' followed by a command name for more
information on commands.

CPLEX> Selected objective sense:  MINIMIZE
Selected objective  name:  00000000
Selected RHS        name:  RHS1
Selected bound      name:  BOUND
Problem 'ee.mps' read.
Read time = 0.02 sec. (3.14 ticks)
CPLEX> New value for time limit in seconds: 7200
CPLEX> New value for parallel optimization mode: -1
CPLEX> New value for default parallel thread count: 40
CPLEX> New value for mixed integer optimality gap tolerance: 1e-13
CPLEX> Version identifier: 22.1.1.0 | 2022-11-28 | 9160aff4d
CPXPARAM_Threads                                 40
CPXPARAM_Parallel                                -1
CPXPARAM_TimeLimit                               7200
CPXPARAM_MIP_Tolerances_MIPGap                   1e-13
Found incumbent of value 0.000000 after 0.00 sec. (0.31 ticks)
Tried aggregator 2 times.
MIP Presolve eliminated 180 rows and 2745 columns.
MIP Presolve modified 5862 coefficients.
Aggregator did 713 substitutions.
Reduced MIP has 3623 rows, 7739 columns, and 28643 nonzeros.
Reduced MIP has 7739 binaries, 0 generals, 0 SOSs, and 0 indicators.
Presolve time = 0.07 sec. (68.57 ticks)
Probing time = 0.03 sec. (5.29 ticks)
Tried aggregator 1 time.
Detecting symmetries...
Reduced MIP has 3623 rows, 7739 columns, and 28643 nonzeros.
Reduced MIP has 7739 binaries, 0 generals, 0 SOSs, and 0 indicators.
Presolve time = 0.03 sec. (21.83 ticks)
Probing time = 0.02 sec. (5.09 ticks)
Clique table members: 18551.
MIP emphasis: balance optimality and feasibility.
MIP search method: dynamic search.
Parallel mode: opportunistic, using up to 40 threads.
Root relaxation solution time = 0.07 sec. (61.50 ticks)

        Nodes                                         Cuts/
   Node  Left     Objective  IInf  Best Integer    Best Bound    ItCnt     Gap

*     0+    0                            0.0000  -1.31000e+13              --- 
*     0+    0                      -6.49000e+12  -1.31000e+13           101.85%
*     0+    0                      -7.59000e+12  -1.31000e+13            72.60%
      0     0  -1.30900e+13    21  -7.59000e+12  -1.30900e+13     1690   72.46%
*     0+    0                      -1.30900e+13  -1.30900e+13             0.00%
      0     0  -1.30900e+13   127  -1.30900e+13      Cuts: 38     2126    0.00%
*     0+    0                      -1.30900e+13  -1.30900e+13             0.00%
      0     0  -1.30900e+13   140  -1.30900e+13      Cuts: 56     2426    0.00%
*     0+    0                      -1.30900e+13  -1.30900e+13             0.00%

Repeating presolve.
Tried aggregator 3 times.
MIP Presolve eliminated 1666 rows and 3870 columns.
MIP Presolve modified 113 coefficients.
Aggregator did 341 substitutions.
Reduced MIP has 1616 rows, 3498 columns, and 12256 nonzeros.
Reduced MIP has 3498 binaries, 0 generals, 0 SOSs, and 0 indicators.
Presolve time = 0.07 sec. (72.52 ticks)
Probing time = 0.04 sec. (11.20 ticks)
Tried aggregator 1 time.
Detecting symmetries...
MIP Presolve eliminated 6 rows and 5 columns.
Reduced MIP has 1610 rows, 3493 columns, and 12234 nonzeros.
Reduced MIP has 3493 binaries, 0 generals, 0 SOSs, and 0 indicators.
Presolve time = 0.02 sec. (13.76 ticks)
Represolve time = 0.14 sec. (110.60 ticks)
Probing time = 0.04 sec. (12.44 ticks)
Clique table members: 8297.
MIP emphasis: balance optimality and feasibility.
MIP search method: dynamic search.
Parallel mode: opportunistic, using up to 40 threads.
Root relaxation solution time = 0.04 sec. (30.18 ticks)

        Nodes                                         Cuts/
   Node  Left     Objective  IInf  Best Integer    Best Bound    ItCnt     Gap

*     0+    0                      -1.30900e+13  -1.30900e+13             0.00%
      0     0  -1.30900e+13   103  -1.30900e+13  -1.30900e+13     3438    0.00%
      0     0  -1.30900e+13   116  -1.30900e+13      Cuts: 80     3666    0.00%
      0     0  -1.30900e+13   137  -1.30900e+13      Cuts: 67     3878    0.00%
*     0+    0                      -1.30900e+13  -1.30900e+13             0.00%
      0     2  -1.30900e+13   117  -1.30900e+13  -1.30900e+13     3878    0.00%
Elapsed time = 1.74 sec. (935.67 ticks, tree = 0.02 MB, solutions = 7)
   1134    97        cutoff        -1.30900e+13  -1.30900e+13    52597    0.00%
   1919   236  -1.30900e+13    48  -1.30900e+13  -1.30900e+13   137220    0.00%
   3331   396    infeasible        -1.30900e+13  -1.30900e+13   209849    0.00%
   4638   101        cutoff        -1.30900e+13  -1.30900e+13   294200    0.00%

GUB cover cuts applied:  1
Clique cuts applied:  23
Cover cuts applied:  542
Flow cuts applied:  5
Mixed integer rounding cuts applied:  4
Zero-half cuts applied:  13
Lift and project cuts applied:  17
Gomory fractional cuts applied:  21

Root node processing (before b&c):
  Real time             =    1.35 sec. (935.96 ticks)
Parallel b&c, 40 threads:
  Real time             =    1.91 sec. (1188.01 ticks)
  Sync time (average)   =    0.47 sec.
  Wait time (average)   =    0.00 sec.
                          ------------
Total (root+branch&cut) =    3.26 sec. (2123.97 ticks)

Solution pool: 18 solutions saved.

MIP - Integer optimal solution:  Objective = -1.3089999991e+13
Solution time =    3.35 sec.  Iterations = 356282  Nodes = 5347
Deterministic time = 2124.00 ticks  (634.22 ticks/sec)

CPLEX> Solution 'p19' written to file 'ee.sol'.
CPLEX> 